n_res = 4;
rc = [ 30, 27, 17, 21 ];
n_tasks = 30;
d = [ 8, 3, 7, 2, 3, 6, 7, 9, 9, 3, 1, 2, 5, 2, 5, 9, 3, 2, 3, 3, 8, 9, 4, 7, 3, 9, 9, 4, 5, 2 ];
rr = [| 30, 30, 30, 30, 30, 30, 30, 30, 30, 30, 30, 30, 30, 30, 30, 30, 30, 30, 30, 30, 30, 30, 30, 30, 30, 30, 30, 30, 30, 30
      | 27, 27, 27, 27, 27, 27, 27, 27, 27, 27, 27, 27, 27, 27, 27, 27, 27, 27, 27, 27, 27, 27, 27, 27, 27, 27, 27, 27, 27, 27
      | 17, 17, 17, 17, 17, 17, 17, 17, 17, 17, 17, 17, 17, 17, 17, 17, 17, 17, 17, 17, 17, 17, 17, 17, 17, 17, 17, 17, 17, 17
      | 21, 21, 21, 21, 21, 21, 21, 21, 21, 21, 21, 21, 21, 21, 21, 21, 21, 21, 21, 21, 21, 21, 21, 21, 21, 21, 21, 21, 21, 21|];
suc = [ { 6, 13, 16 },
       { 4, 5, 19 },
       { 23 },
       { 17 },
       { 7, 18, 20 },
       { 9 },
       { 8, 15 },
       { 11, 23 },
       { 10 },
       { 12, 14 },
       { 13 },
       { 20, 21 },
       { 24, 30 },
       { 25, 26 },
       { 28 },
       { 20 },
       { 28 },
       { 24 },
       { 23 },
       { 27 },
       { 22 },
       { 24, 26, 30 },
       { 25, 30 },
       { 29 },
       { 27 },
       { 27 },
       { 28 },
       {  },
       {  },
       {  } ];
